c Reduced graph for GEOM20a generated by Cyril Grelier
p edge 20 37
e 1 2
e 1 3
e 1 4
e 1 5
e 1 6
e 1 7
e 1 10
e 2 3
e 2 4
e 2 5
e 2 7
e 2 10
e 3 4
e 3 5
e 3 6
e 3 10
e 4 6
e 4 7
e 4 16
e 5 7
e 5 10
e 6 7
e 6 16
e 8 9
e 8 11
e 8 12
e 8 14
e 9 11
e 9 12
e 9 14
e 11 12
e 11 19
e 12 14
e 13 15
e 13 17
e 13 18
e 15 17
